c
c Renamed file of tcon.cnf 
c Variables are renamed according to left2right.ord 
c
c Date: Thu Apr 29 14:50:13 PDT 2004 by (jinbo)
c Host: Linux solution 2.4.18-4smp #1 SMP Thu May 2 18:32:34 EDT 2002 i686 unknown
c
c Copyright (c) 2001 Fadi A. Aloul.
c
p cnf 65 136
-33 -43 0
47 -43 0
43 33 -47 0
-43 44 0
33 -42 0
45 -42 0
42 -33 -45 0
-42 44 0
47 -46 0
45 -46 0
46 -47 -45 0
-46 44 0
-44 43 42 46 0
-33 -48 0
53 -48 0
48 33 -53 0
-48 49 0
33 -50 0
51 -50 0
50 -33 -51 0
-50 49 0
53 -52 0
51 -52 0
52 -53 -51 0
-52 49 0
-49 48 50 52 0
-33 -55 0
59 -55 0
55 33 -59 0
-55 56 0
33 -54 0
57 -54 0
54 -33 -57 0
-54 56 0
59 -58 0
57 -58 0
58 -59 -57 0
-58 56 0
-56 55 54 58 0
-33 -30 0
27 -30 0
30 33 -27 0
-30 31 0
33 -32 0
29 -32 0
32 -33 -29 0
-32 31 0
27 -28 0
29 -28 0
28 -27 -29 0
-28 31 0
-31 30 32 28 0
-33 -13 0
14 -13 0
13 33 -14 0
-13 11 0
33 -12 0
9 -12 0
12 -33 -9 0
-12 11 0
14 -10 0
9 -10 0
10 -14 -9 0
-10 11 0
-11 13 12 10 0
-33 -5 0
6 -5 0
5 33 -6 0
-5 3 0
33 -4 0
1 -4 0
4 -33 -1 0
-4 3 0
6 -2 0
1 -2 0
2 -6 -1 0
-2 3 0
-3 5 4 2 0
-33 -25 0
21 -25 0
25 33 -21 0
-25 24 0
33 -26 0
23 -26 0
26 -33 -23 0
-26 24 0
21 -22 0
23 -22 0
22 -21 -23 0
-22 24 0
-24 25 26 22 0
-33 -35 0
39 -35 0
35 33 -39 0
-35 36 0
33 -34 0
37 -34 0
34 -33 -37 0
-34 36 0
39 -38 0
37 -38 0
38 -39 -37 0
-38 36 0
-36 35 34 38 0
47 -60 0
60 -47 0
-60 61 0
-61 60 0
53 -62 0
62 -53 0
-62 63 0
-63 62 0
59 -64 0
64 -59 0
-64 65 0
-65 64 0
27 -18 0
18 -27 0
-18 17 0
-17 18 0
14 -15 0
15 -14 0
-15 16 0
-16 15 0
6 -7 0
7 -6 0
-7 8 0
-8 7 0
21 -20 0
20 -21 0
-20 19 0
-19 20 0
39 -40 0
40 -39 0
-40 41 0
-41 40 0
